D = 2;
n = [ 2 2 ];
N = 8;
d = [1 1 1 1 2 2 2 2 ];
m = [
[1.00 0.38 1.00 0.63 0.77 0.47 0.28 0.78 ]
[0.38 1.00 0.17 0.41 0.37 0.39 0.30 0.63 ]
[1.00 0.17 1.00 0.75 0.57 0.07 0.67 0.41 ]
[0.63 0.41 0.75 1.00 0.82 0.10 0.66 0.25 ]
[0.77 0.37 0.57 0.82 1.00 0.66 0.51 0.66 ]
[0.47 0.39 0.07 0.10 0.66 1.00 0.39 0.83 ]
[0.28 0.30 0.67 0.66 0.51 0.39 1.00 0.99 ]
[0.78 0.63 0.41 0.25 0.66 0.83 0.99 1.00 ]
];
